% File represents an instance of a Composite Structure problem to be solved by a CP framework
% Created on 2025-03-26 10:41:59.076
T = 50;
n = 36;
m = 60;
edges = [(1, 2),
(7, 8),
(13, 14),
(19, 20),
(25, 26),
(31, 32),
(2, 3),
(8, 9),
(14, 15),
(20, 21),
(26, 27),
(32, 33),
(3, 4),
(9, 10),
(15, 16),
(21, 22),
(27, 28),
(33, 34),
(4, 5),
(10, 11),
(16, 17),
(22, 23),
(28, 29),
(34, 35),
(6, 5),
(12, 11),
(18, 17),
(24, 23),
(30, 29),
(36, 35),
(7, 1),
(13, 7),
(19, 13),
(25, 19),
(31, 25),
(8, 2),
(14, 8),
(20, 14),
(26, 20),
(32, 26),
(9, 3),
(15, 9),
(21, 15),
(27, 21),
(33, 27),
(10, 4),
(16, 10),
(22, 16),
(28, 22),
(34, 28),
(11, 5),
(17, 11),
(23, 17),
(29, 23),
(35, 29),
(6, 12),
(18, 12),
(24, 18),
(30, 24),
(36, 30)];
counts = [|6, 6, 6, 10,
|4, 6, 4, 8,
|4, 4, 4, 4,
|4, 2, 4, 4,
|4, 2, 4, 2,
|4, 2, 4, 8,
|8, 6, 8, 10,
|6, 6, 6, 10,
|4, 4, 4, 10,
|4, 4, 4, 6,
|4, 2, 4, 4,
|4, 2, 4, 6,
|8, 6, 8, 12,
|8, 6, 8, 10,
|6, 4, 6, 10,
|4, 4, 4, 8,
|4, 4, 4, 6,
|4, 4, 4, 8,
|8, 12, 8, 12,
|8, 12, 8, 10,
|8, 6, 8, 10,
|6, 4, 6, 10,
|4, 4, 4, 8,
|4, 6, 4, 8,
|10, 12, 10, 12,
|8, 12, 8, 12,
|8, 6, 8, 12,
|6, 6, 6, 10,
|6, 4, 6, 8,
|6, 8, 6, 8,
|12, 12, 12, 14,
|10, 12, 10, 12,
|8, 10, 8, 12,
|8, 8, 8, 10,
|6, 8, 6, 10,
|6, 10, 6, 10|];
